NAME          
ROWS
 N  OBJ
 L  c1
COLUMNS
    MARKER    'MARKER'                 'INTORG'
    x[1]      c1        956
    x[1]      OBJ       -974
    x[2]      c1        222
    x[2]      OBJ       -128
    x[3]      c1        768
    x[3]      OBJ       -753
    x[4]      c1        322
    x[4]      OBJ       -396
    x[5]      c1        354
    x[5]      OBJ       -382
    x[6]      c1        749
    x[6]      OBJ       -696
    x[7]      c1        861
    x[7]      OBJ       -811
    x[8]      c1        665
    x[8]      OBJ       -743
    x[9]      c1        767
    x[9]      OBJ       -686
    x[10]     c1        900
    x[10]     OBJ       -992
    x[11]     c1        257
    x[11]     OBJ       -283
    x[12]     c1        1009
    x[12]     OBJ       -978
    x[13]     c1        315
    x[13]     OBJ       -232
    x[14]     c1        588
    x[14]     OBJ       -601
    x[15]     c1        92
    x[15]     OBJ       -146
    x[16]     c1        686
    x[16]     OBJ       -779
    x[17]     c1        118
    x[17]     OBJ       -166
    x[18]     c1        239
    x[18]     OBJ       -322
    x[19]     c1        501
    x[19]     OBJ       -572
    x[20]     c1        349
    x[20]     OBJ       -396
RHS
    rhs       c1        5359
RANGES
BOUNDS
 BV bounds    x[1]
 BV bounds    x[2]
 BV bounds    x[3]
 BV bounds    x[4]
 BV bounds    x[5]
 BV bounds    x[6]
 BV bounds    x[7]
 BV bounds    x[8]
 BV bounds    x[9]
 BV bounds    x[10]
 BV bounds    x[11]
 BV bounds    x[12]
 BV bounds    x[13]
 BV bounds    x[14]
 BV bounds    x[15]
 BV bounds    x[16]
 BV bounds    x[17]
 BV bounds    x[18]
 BV bounds    x[19]
 BV bounds    x[20]
ENDATA
